26 26
22
3 3 20 19
3 4 20 22
3 5 17 21
3 6 7 12
3 7 17 14
3 8 7 18
3 9 0 17
3 10 14 16
3 11 23 0
3 12 7 0
3 14 17 0
3 15 23 11
3 16 14 0
3 17 0 0
3 19 20 0
4 3 3 0
4 4 10 8
4 5 3 21
4 7 3 3
4 8 10 0
4 11 3 10
4 14 10 12
